36593
43,48,65,106,269,520,613,855,931,998,1114,1284,1300,1329,1752,1878,1904,1919,1948,1950,2108,2174,2295,2337,2400,2465,2492,2504,2525,2586,2620,2693,2720,2744,2764,2860,2913,2966,3019,3042,3156,3180,3216,3366,3384,3450,3516,3543,3552,3555,3558,3576,3586,3617,3663,3670,3771,3823,4099,4290,4314,4315,4337,4391,4422,4449,4456,4597,4658,4710,4814,4819,4849,4852
